c WARNING: for repeatability, setting FPU to use double precision
d VARIABLES            123146       
d CONSTRAINTS          546672       
c ============================[ Problem Statistics ]=============================
c |                                                                             |
c |  Number of variables:        123146                                         |
c |  Number of clauses:          546672                                         |
c |  Parse time:                   0.09 s                                       |
c |                                                                             |
c ============================[ Search Statistics ]==============================
c | Conflicts |          ORIGINAL         |          LEARNT          | Progress |
c |           |    Vars  Clauses Literals |    Limit  Clauses Lit/Cl |          |
c ===============================================================================
c |       100 |  104262   492792  1194048 |   180690      100     46 | 15.335 % |
c |       250 |  104262   492792  1194048 |   198759      250     47 | 15.335 % |
c |       475 |  104262   492792  1194048 |   218635      475     59 | 15.335 % |
c |       812 |  104262   492792  1194048 |   240498      812     96 | 15.335 % |
c |      1318 |  104262   492792  1194048 |   264548     1318    102 | 15.335 % |
c |      2077 |  104262   492792  1194048 |   291003     2077    103 | 15.335 % |
c |      3216 |  104262   492792  1194048 |   320104     3216    135 | 15.335 % |
c |      4924 |  104262   492792  1194048 |   352114     4924    127 | 15.335 % |
c |      7486 |  104262   492792  1194048 |   387325     7486    135 | 15.335 % |
c |     11330 |  104262   492792  1194048 |   426058    11330    128 | 15.335 % |
c |     17096 |  104262   492792  1194048 |   468664    17096    123 | 15.335 % |
c |     25745 |  104262   492792  1194048 |   515530    25745    124 | 15.335 % |
c |     38719 |  104262   492792  1194048 |   567083    38719    129 | 15.335 % |
c |     58180 |  104262   492792  1194048 |   623792    58180    133 | 15.335 % |
c |     87372 |  104262   492792  1194048 |   686171    87372    136 | 15.335 % |
c |    131161 |  104262   492792  1194048 |   754788   131161    131 | 15.335 % |
c |    196845 |  104262   492792  1194048 |   830267   196845    136 | 15.335 % |
c |    295371 |  104262   492792  1194048 |   913294   295371    134 | 15.335 % |
c |    443160 |  104262   492792  1194048 |  1004623   443160    139 | 15.335 % |
c |    664843 |  104262   492792  1194048 |  1105086   664843    138 | 15.335 % |
c |    997368 |  104262   492792  1194048 |  1215594   997368    141 | 15.335 % |
c |   1496156 |  104262   492792  1194048 |  1337154   286148    120 | 15.335 % |
c ===============================================================================
c restarts              : 4093
c conflicts             : 2115197        (1183 /sec)
c decisions             : 5410514        (0.00 % random) (3026 /sec)
c propagations          : 2928185281     (1637582 /sec)
c conflict literals     : 300685683      (43.18 % deleted)
d RESTARTS             4093
d FAILURES             2115197      
d NODES                5410514      
d BACKTRACKS           5410514      
d PROPAGATIONS         2928185281   
d NOGOODSIZE           142.15 
d MEMORY               1033.00 
d TIME                 1788.12 

s UNKNOWN
